; benchmark generated from python API
(set-info :status unknown)
(declare-datatypes ((RealState 0)) (((RMk1 (rval1 Real)) (RMk2 (rval2 Real)))))
 (assert
 (forall ((|v9:0| Real) )(exists ((|v8:1_st| RealState) (val!975 Real) )(forall ((|v7:2| Real) )(exists ((|v6:3_st| RealState) (val!976 Real) )(forall ((|v5:4| Real) )(exists ((|v4:5_st| RealState) (val!977 Real) )(forall ((|v3:6| Real) )(exists ((|v2:7_st| RealState) (val!978 Real) )(forall ((|v1:8| Real) )(exists ((|v0:9_st| RealState) (val!979 Real) )(let (($x939 (<= (+ (+ (* 12.0 |v1:8|) (* (- 3.0) |v7:2|)) (* (- 17.0) |v1:8|)) 17.0)))
 (let (($x815 (<= (+ (+ (* 19.0 |v7:2|) (* 9.0 |v3:6|)) (* (- 7.0) |v7:2|)) 18.0)))
 (let ((?x23 (- 16.0)))
 (let ((?x829 (+ (+ (* 17.0 (rval2 |v0:9_st|)) (* (- 6.0) (rval2 |v0:9_st|))) (* (- 10.0) |v7:2|))))
 (let ((?x49 (- 5.0)))
 (let ((?x267 (+ (+ (* (- 2.0) (rval2 |v4:5_st|)) (* (- 17.0) (rval2 |v2:7_st|))) (* 14.0 |v7:2|))))
 (let ((?x46 (+ (+ (* 14.0 (rval2 |v2:7_st|)) (* (- 18.0) (rval2 |v6:3_st|))) (* (- 4.0) |v7:2|))))
 (let ((?x1022 (+ (+ (* (- 2.0) |v1:8|) (* ?x23 (rval2 |v8:1_st|))) (* 18.0 (rval2 |v2:7_st|)))))
 (let ((?x355 (* 8.0 |v5:4|)))
 (let ((?x418 (+ (+ (* (- 18.0) (rval2 |v2:7_st|)) (* (- 4.0) (rval2 |v2:7_st|))) ?x355)))
 (let (($x719 (or (and (<= ?x418 12.0) (<= ?x1022 0.0)) (or (<= ?x46 11.0) (<= ?x267 ?x49)))))
 (let ((?x733 (- 12.0)))
 (let (($x457 (and (<= (+ (+ (* 19.0 |v7:2|) (* 13.0 |v5:4|)) (* 9.0 |v3:6|)) ?x733) (<= (+ (+ (* 7.0 (rval2 |v6:3_st|)) |v5:4|) (* ?x49 |v1:8|)) (- 11.0)))))
 (let ((?x187 (- 10.0)))
 (let ((?x960 (* ?x187 |v3:6|)))
 (let ((?x420 (- 7.0)))
 (let (($x164 (<= (+ (+ (* (- 14.0) |v1:8|) (* 3.0 (rval2 |v0:9_st|))) (* 10.0 |v5:4|)) ?x420)))
 (let (($x1135 (or $x164 (<= (+ (+ (* (- 19.0) |v5:4|) (* (- 3.0) |v7:2|)) ?x960) 13.0))))
 (let ((?x515 (- 8.0)))
 (let ((?x891 (rval2 |v0:9_st|)))
 (let ((?x672 (* 12.0 ?x891)))
 (let (($x642 (<= (+ (+ (* 0.0 (rval2 |v8:1_st|)) (* 0.0 (rval2 |v2:7_st|))) ?x672) ?x515)))
 (let (($x1129 (and $x642 (<= (+ (+ (* 19.0 |v7:2|) (* 13.0 |v7:2|)) (* 16.0 |v3:6|)) ?x23))))
 (let ((?x1409 (- 13.0)))
 (let (($x61 (<= (+ (+ (* ?x733 (rval2 |v2:7_st|)) (* ?x49 |v1:8|)) (* 12.0 (rval2 |v2:7_st|))) ?x1409)))
 (let ((?x759 (- 20.0)))
 (let (($x1017 (<= (+ (+ (* 20.0 |v5:4|) (* ?x420 (rval2 |v6:3_st|))) (* ?x23 ?x891)) ?x759)))
 (let (($x716 (and (and (and (and $x1017 $x61) $x1129) (and $x1135 $x457)) (or $x719 (or (<= ?x829 ?x23) (and $x815 $x939))))))
 (let ((?x823 (+ (+ (* (- 1.0) (rval2 |v2:7_st|)) (* (- 9.0) (rval2 |v6:3_st|))) (* ?x733 ?x891))))
 (let ((?x239 (- 2.0)))
 (let ((?x260 (* ?x239 |v1:8|)))
 (let (($x968 (<= (+ (+ (* (- 15.0) (rval2 |v4:5_st|)) (* 10.0 |v5:4|)) ?x260) 8.0)))
 (let (($x1348 (and (and $x968 (<= ?x823 14.0)) (<= (+ (+ (* 19.0 |v5:4|) (* ?x759 |v7:2|)) (* 6.0 |v1:8|)) 19.0))))
 (let ((?x845 (+ (+ (* (- 9.0) (rval2 |v4:5_st|)) (* 4.0 ?x891)) (* 18.0 (rval2 |v4:5_st|)))))
 (let ((?x1074 (- 4.0)))
 (let (($x82 (<= (+ (+ (* 13.0 |v7:2|) (* ?x49 (rval2 |v2:7_st|))) (* (- 6.0) |v7:2|)) ?x1074)))
 (let ((?x862 (rval2 |v2:7_st|)))
 (let ((?x88 (* 0.0 ?x862)))
 (let (($x1197 (<= (+ (+ (* ?x759 |v9:0|) (* 2.0 (rval2 |v4:5_st|))) (* 20.0 |v5:4|)) 10.0)))
 (let (($x639 (or $x1197 (<= (+ (+ (* 15.0 |v5:4|) (* ?x49 (rval2 |v4:5_st|))) ?x88) 15.0))))
 (let (($x770 (or (<= (+ (+ (* 10.0 |v9:0|) (* 10.0 |v1:8|)) (* ?x733 |v7:2|)) 14.0) (<= (+ (+ (* 14.0 ?x862) ?x960) (* 9.0 |v5:4|)) 2.0))))
 (let (($x623 (<= (+ (+ (* (- 3.0) |v3:6|) (* (- 18.0) |v3:6|)) (* ?x239 |v3:6|)) ?x49)))
 (let ((?x273 (+ (+ (* (- 15.0) |v7:2|) (* (- 18.0) |v9:0|)) (* (- 6.0) |v3:6|))))
 (let (($x1214 (and (<= ?x273 ?x515) (<= (+ (+ (* 0.0 |v7:2|) ?x260) (* 9.0 |v1:8|)) ?x49))))
 (let (($x738 (and (or (and $x1214 $x623) $x770) (and (and $x639 (or $x82 (<= ?x845 ?x239))) $x1348))))
 (let (($x945 (not (= |v0:9_st| (RMk1 val!979)))))
 (let (($x729 (not (= |v2:7_st| (RMk1 val!978)))))
 (let (($x655 (not (= |v4:5_st| (RMk1 val!977)))))
 (let (($x501 (not (= |v6:3_st| (RMk1 val!976)))))
 (let (($x699 (not (= |v8:1_st| (RMk1 val!975)))))
 (and $x699 $x501 $x655 $x729 $x945 (or $x738 $x716)))))))))))))))))))))))))))))))))))))))))))))))))))))
 )
 )
 )
 )
 )
 )
 )
 )
 )
 )
(check-sat)
